10764
1111111111
7 7 7 7 7 7 7 7 3 4 4 4 3 4 4 4 4 5 5 8 8 3 3 8 3 1 5 9 9 9 9 9 9 1 6 6 6 6 6 6 6 6 6 6 7 7 4 8 8 5 5 3 4 6 2 5 3 3 3 4 6 9 5 8 0 8 9 6 4 7 6 6 4 3 3 5 3 4 7 9 6 3 8 5 5 3 3 7 5 3 5 9 9 1 5 1 3 4 3 7 